(declare-fun ExpandObjSwitcher () Real)
(declare-fun CreateAsClass () Bool)
(declare-fun ExpandObjSwitcher_2 () Real)
(declare-fun Constructed_Argument_t () String)
(declare-fun CreateAsClass_2 () Bool)
(assert (= ExpandObjSwitcher 1.0))
(assert CreateAsClass)
(assert (= ExpandObjSwitcher_2 2.0))
(assert (= Constructed_Argument_t "object"))
(assert CreateAsClass_2)
(check-sat)
